109 95 174 90 25 173 136 105 147 68 62 55 185 34 161 149 32 85 4 67 73 52 72 45 2 92 142 187 79 188 175 0 164 171 3 26 1 98 195 35 158 47 54 78 178 8 6 33 80 84 151 116 12 145 91 123 24 131 112 111 30 88 76 162 37 13 118 137 43 100 108 156 150 77 107 93 160 125 65 97 172 153 101 14 168 124 106 64 66 180 87 177 104 59 11 81 179 99 44 86 140 167 113 103 166 82 194 36 133 39 144 169 15 119 170 152 75 5 193 186 29 94 48 114 42 182 181 89 126 163 50 49 58 165 122 61 190 189 53 7 146 143 17 83 69 197 134 56 27 20 51 74 102 46 57 121 23 117 191 130 21 184 31 40 115 138 22 198 176 38 148 110 159 129 155 41 157 192 183 141 96 154 70 128 28 60 63 16 135 199 127 10 71 196 9 132 19 120 139 18 

